100
32
26
20
30
1
5
2
16
15
12
22
22
3
22
31
10
12
30
20
29
26
17
30
1
4
32
4
26
15
22
8
18
25
6
21
15
4
8
5
24
1
22
2
7
16
29
1
32
17
7
11
29
21
28
7
20
25
27
22
8
27
18
30
26
24
3
2
8
24
29
3
25
27
24
13
32
13
17
28
28
23
21
21
12
24
18
6
28
17
27
3
3
2
2
17
21
11
6
11
5
3